c Result of efficient AIG-to-CNF conversion using package CNF
p cnf 114 415
-2 3 72 0
-2 -3 -72 0
2 -3 72 0
2 3 -72 0
-3 -4 -66 0
-3 4 66 0
3 4 -66 0
3 -4 66 0
-4 -5 -53 0
-4 5 53 0
4 5 -53 0
4 -5 53 0
-5 6 39 0
-5 -6 -39 0
5 -6 39 0
5 6 -39 0
-6 7 38 0
-6 -7 -38 0
6 -7 38 0
6 7 -38 0
-7 8 24 0
-7 -8 -24 0
7 -8 24 0
7 8 -24 0
-8 9 19 0
-8 -9 -19 0
8 -9 19 0
8 9 -19 0
-9 10 13 0
-9 -10 -13 0
9 -10 13 0
9 10 -13 0
-10 -11 -12 0
-10 11 12 0
10 11 -12 0
10 -11 12 0
11 -109 -111 0
-11 109 0
-11 111 0
12 -106 -107 0
-12 106 0
-12 107 0
-13 14 15 0
-13 14 16 0
13 -14 0
13 -15 -16 0
14 -107 -108 -109 -111 0
-14 111 0
-14 107 0
-14 109 0
-14 108 0
15 -104 -106 0
-15 104 0
-15 106 0
-16 -17 -18 0
-16 17 18 0
16 17 -18 0
16 -17 18 0
17 -108 -109 0
-17 108 0
-17 109 0
18 -107 -111 0
-18 107 0
-18 111 0
-19 -20 -23 0
-19 20 23 0
19 20 -23 0
19 -20 23 0
-20 -21 -22 0
-20 21 22 0
20 21 -22 0
20 -21 22 0
21 -104 -110 0
-21 104 0
-21 110 0
22 -103 -105 0
-22 103 0
-22 105 0
23 -112 -113 0
-23 112 0
-23 113 0
-24 26 32 0
-24 25 37 0
-24 25 32 0
-24 26 37 0
24 -32 -37 0
24 -25 -26 0
-25 15 16 0
-25 -15 -16 0
25 -15 16 0
25 15 -16 0
-26 27 28 0
-26 27 29 0
26 -27 0
26 -28 -29 0
27 -104 -107 -108 -111 0
-27 111 0
-27 104 0
-27 108 0
-27 107 0
28 -105 -106 0
-28 105 0
-28 106 0
-29 -30 -31 0
-29 30 31 0
29 30 -31 0
29 -30 31 0
30 -107 -108 0
-30 107 0
-30 108 0
31 -104 -111 0
-31 104 0
-31 111 0
-32 -33 -36 0
-32 33 36 0
32 33 -36 0
32 -33 36 0
-33 -34 -35 0
-33 34 35 0
33 34 -35 0
33 -34 35 0
34 -105 -110 0
-34 105 0
-34 110 0
35 -103 -113 0
-35 103 0
-35 113 0
36 -102 -112 0
-36 102 0
-36 112 0
-37 25 26 0
-37 -25 -26 0
37 -25 26 0
37 25 -26 0
-38 34 36 0
-38 35 36 0
-38 34 35 0
38 -34 -35 0
38 -35 -36 0
38 -34 -36 0
-39 40 41 0
-39 41 52 0
-39 40 52 0
39 -41 -52 0
39 -40 -41 0
39 -40 -52 0
-40 32 37 0
-40 -32 -37 0
40 -32 37 0
40 32 -37 0
-41 42 43 0
-41 43 49 0
-41 42 49 0
41 -42 -49 0
41 -43 -49 0
41 -42 -43 0
-42 28 29 0
-42 -28 -29 0
42 -28 29 0
42 28 -29 0
-43 44 45 0
-43 44 46 0
43 -44 0
43 -45 -46 0
44 -104 -105 -108 -111 0
-44 111 0
-44 104 0
-44 108 0
-44 105 0
45 -106 -113 0
-45 106 0
-45 113 0
-46 -47 -48 0
-46 47 48 0
46 47 -48 0
46 -47 48 0
47 -104 -108 0
-47 104 0
-47 108 0
48 -105 -111 0
-48 105 0
-48 111 0
-49 -50 -51 0
-49 50 51 0
49 50 -51 0
49 -50 51 0
50 -110 -113 0
-50 110 0
-50 113 0
51 -102 -103 0
-51 102 0
-51 103 0
52 -50 -51 0
-52 50 0
-52 51 0
53 -54 -56 0
-53 54 0
-53 56 0
-54 52 55 0
-54 -52 -55 0
54 -52 55 0
54 52 -55 0
-55 40 41 0
-55 -40 -41 0
55 -40 41 0
55 40 -41 0
56 -57 -59 0
-56 57 0
-56 59 0
-57 49 58 0
-57 -49 -58 0
57 -49 58 0
57 49 -58 0
-58 42 43 0
-58 -42 -43 0
58 -42 43 0
58 42 -43 0
-59 60 61 0
-59 61 65 0
-59 60 65 0
59 -61 -65 0
59 -60 -61 0
59 -60 -65 0
-60 45 46 0
-60 -45 -46 0
60 -45 46 0
60 45 -46 0
-61 62 64 0
-61 63 64 0
-61 62 63 0
61 -62 -63 0
61 -63 -64 0
61 -62 -64 0
62 -105 -108 0
-62 105 0
-62 108 0
63 -111 -113 0
-63 111 0
-63 113 0
64 -102 -106 0
-64 102 0
-64 106 0
65 -102 -110 0
-65 102 0
-65 110 0
66 -54 57 -59 -67 0
66 -54 -57 59 -67 0
-66 67 0
-66 57 59 0
-66 54 0
-66 -57 -59 0
67 65 -68 -69 -71 0
67 -65 68 -69 -71 0
-67 69 0
-67 65 68 0
-67 71 0
-67 -65 -68 0
-68 60 61 0
-68 -60 -61 0
68 -60 61 0
68 60 -61 0
-69 64 70 0
-69 -64 -70 0
69 -64 70 0
69 64 -70 0
-70 -62 -63 0
-70 62 63 0
70 62 -63 0
70 -62 63 0
71 -102 -108 -111 -113 0
-71 113 0
-71 102 0
-71 111 0
-71 108 0
-72 73 86 0
-72 -73 -86 0
72 -73 86 0
72 73 -86 0
-73 74 80 0
-73 -74 -80 0
73 -74 80 0
73 74 -80 0
-74 75 76 0
-74 76 78 0
-74 75 78 0
74 -75 -78 0
74 -76 -78 0
74 -75 -76 0
-75 28 51 0
-75 50 51 0
-75 28 50 0
75 -28 -50 0
75 -50 -51 0
75 -28 -51 0
-76 34 77 0
-76 -34 -77 0
76 -34 77 0
76 34 -77 0
-77 -15 -36 0
-77 15 36 0
77 15 -36 0
77 -15 36 0
-78 16 79 0
-78 -16 -79 0
78 -16 79 0
78 16 -79 0
-79 -27 -35 0
-79 27 35 0
79 27 -35 0
79 -27 35 0
-80 81 83 0
-80 -81 -83 0
80 -81 83 0
80 81 -83 0
-81 19 82 0
-81 -19 -82 0
81 -19 82 0
81 19 -82 0
-82 27 35 0
-82 16 27 0
-82 16 35 0
82 -16 -27 0
82 -27 -35 0
82 -16 -35 0
-83 84 85 0
-83 -84 -85 0
83 -84 85 0
83 84 -85 0
-84 -10 -14 0
-84 10 14 0
84 10 -14 0
84 -10 14 0
-85 15 36 0
-85 34 36 0
-85 15 34 0
85 -15 -34 0
85 -34 -36 0
85 -15 -36 0
-86 87 90 0
-86 90 92 0
-86 87 92 0
86 -87 -92 0
86 -90 -92 0
86 -87 -90 0
-87 29 88 0
-87 29 44 0
-87 44 88 0
87 -44 -88 0
87 -29 -88 0
87 -29 -44 0
-88 50 89 0
-88 -50 -89 0
88 -50 89 0
88 50 -89 0
-89 -28 -51 0
-89 28 51 0
89 28 -51 0
89 -28 51 0
-90 78 91 0
-90 -78 -91 0
90 -78 91 0
90 78 -91 0
-91 75 76 0
-91 -75 -76 0
91 -75 76 0
91 75 -76 0
-92 93 95 0
-92 95 97 0
-92 93 97 0
92 -93 -97 0
92 -95 -97 0
92 -93 -95 0
-93 45 94 0
-93 65 94 0
-93 45 65 0
93 -45 -65 0
93 -65 -94 0
93 -45 -94 0
94 -63 -64 0
-94 63 0
-94 64 0
-95 88 96 0
-95 -88 -96 0
95 -88 96 0
95 88 -96 0
-96 -29 -44 0
-96 29 44 0
96 29 -44 0
96 -29 44 0
-97 46 98 0
-97 98 100 0
-97 46 100 0
97 -46 -100 0
97 -98 -100 0
97 -46 -98 0
-98 94 99 0
-98 -94 -99 0
98 -94 99 0
98 94 -99 0
-99 -45 -65 0
-99 45 65 0
99 45 -65 0
99 -45 65 0
-100 71 101 0
-100 62 71 0
-100 62 101 0
100 -62 -71 0
100 -71 -101 0
100 -62 -101 0
-101 -63 -64 0
-101 63 64 0
101 63 -64 0
101 -63 64 0
-114 0
2 0

